(set-logic BV) (define-fun origCir ((i_7 Bool) (i_15 Bool) (i_9 Bool) (i_17 Bool) (i_16 Bool) (i_8 Bool)) Bool (and (not (xor i_15 (not i_7))) (and (and i_17 i_9) (xor i_16 i_8)))) (synth-fun skel ((i_7 Bool) (i_15 Bool) (i_9 Bool) (i_17 Bool) (i_16 Bool) (i_8 Bool)) Bool) (declare-var i_7 Bool) (declare-var i_15 Bool) (declare-var i_9 Bool) (declare-var i_17 Bool) (declare-var i_16 Bool) (declare-var i_8 Bool) (constraint (= (origCir i_7 i_15 i_9 i_17 i_16 i_8) (skel i_7 i_15 i_9 i_17 i_16 i_8))) (check-synth)
